NAME : single.2300.tour
COMMENT : Length = 2300
COMMENT : Found by LKH [Keld Helsgaun] Wed Jun 22 15:02:23 2022
TYPE : TOUR
DIMENSION : 19
TOUR_SECTION
1
17
18
19
16
15
11
10
9
8
7
6
2
3
4
5
12
13
14
-1
EOF
